p cnf 15 14
-1 14 0 
-2 12 -1 -3 14 0 
-4 -5 -3 -1 -6 14 0 
-1 -7 -8 -3 14 0 
-9 -4 -3 -1 14 0 
-3 -5 -4 -1 14 0 
-2 12 15 0 
-10 -11 -2 12 -4 -1 15 0 
-3 -2 12 -1 15 0 
-12 2 15 0 
-2 12 -5 -4 -1 14 0 
-1 -13 -3 14 0 
-9 -1 -4 -3 14 0 
-4 -1 -3 14 0 
